400
50 50
1 35 611
2 35 545
3 35 660
4 35 302
5 35 303
6 35 697
7 35 771
8 35 450
9 35 527
10 35 997
11 35 791
12 35 791
13 35 138
14 35 837
15 35 527
16 35 136
17 34 767
18 34 863
19 34 796
20 34 698
21 34 60
22 34 796
23 34 970
24 33 820
25 33 468
26 33 60
27 33 117
28 33 389
29 33 943
30 33 316
31 33 351
32 33 766
33 33 771
34 33 312
35 33 812
36 33 442
37 33 236
38 33 771
39 32 929
40 32 532
41 32 946
42 32 941
43 32 587
44 32 287
45 32 270
46 32 366
47 32 654
48 32 283
49 32 298
50 32 397
51 32 407
52 32 1
53 32 327
54 32 962
55 32 107
56 32 754
57 32 957
58 31 212
59 31 466
60 31 185
61 31 888
62 31 700
63 31 863
64 31 638
65 31 576
66 31 73
67 31 202
68 31 957
69 31 71
70 31 952
71 31 651
72 30 421
73 30 521
74 30 235
75 30 189
76 30 548
77 30 749
78 30 230
79 30 520
80 30 581
81 30 300
82 30 418
83 30 575
84 30 929
85 30 249
86 30 937
87 30 590
88 30 607
89 30 639
90 30 637
91 30 661
92 29 941
93 29 805
94 29 760
95 29 694
96 29 217
97 29 684
98 29 613
99 29 99
100 29 495
101 29 112
102 29 721
103 29 429
104 29 156
105 29 885
106 29 358
107 29 698
108 29 915
109 29 866
110 29 976
111 28 874
112 28 305
113 28 425
114 28 892
115 28 424
116 28 780
117 28 26
118 28 345
119 28 510
120 28 492
121 28 107
122 28 836
123 27 649
124 27 899
125 27 376
126 27 72
127 27 244
128 27 72
129 27 173
130 27 230
131 27 795
132 27 211
133 27 962
134 27 839
135 27 484
136 27 978
137 27 741
138 27 774
139 27 810
140 27 531
141 27 783
142 27 546
143 27 216
144 26 96
145 26 187
146 26 113
147 26 152
148 26 67
149 26 675
150 26 76
151 26 580
152 26 807
153 26 874
154 26 482
155 26 373
156 26 103
157 26 453
158 26 571
159 25 210
160 25 960
161 25 442
162 25 25
163 25 430
164 25 913
165 25 504
166 25 858
167 25 521
168 24 179
169 24 179
170 24 579
171 24 771
172 24 309
173 24 911
174 24 380
175 24 43
176 24 19
177 24 621
178 24 858
179 23 710
180 23 618
181 23 663
182 23 886
183 23 774
184 23 906
185 23 723
186 23 950
187 23 224
188 23 327
189 23 556
190 23 755
191 23 717
192 23 784
193 23 571
194 23 218
195 23 190
196 23 496
197 23 35
198 22 231
199 22 420
200 22 172
201 22 557
202 22 407
203 22 758
204 22 216
205 22 991
206 22 410
207 22 243
208 22 929
209 22 247
210 22 323
211 22 235
212 21 419
213 21 772
214 21 38
215 21 199
216 21 926
217 21 238
218 21 796
219 21 115
220 21 923
221 21 740
222 21 453
223 21 568
224 20 695
225 20 758
226 20 959
227 20 897
228 20 336
229 20 217
230 20 277
231 20 577
232 20 587
233 20 592
234 20 236
235 20 455
236 20 625
237 20 466
238 20 763
239 20 74
240 20 54
241 20 196
242 20 758
243 19 879
244 19 539
245 19 539
246 19 38
247 19 65
248 19 313
249 19 29
250 19 902
251 19 694
252 19 733
253 19 84
254 19 626
255 19 575
256 19 241
257 19 218
258 19 779
259 18 508
260 18 62
261 18 52
262 18 879
263 18 488
264 18 569
265 18 687
266 18 18
267 18 475
268 18 686
269 18 665
270 18 708
271 18 502
272 18 561
273 18 173
274 17 916
275 17 873
276 17 224
277 17 589
278 17 837
279 17 158
280 17 81
281 17 717
282 17 581
283 17 221
284 17 548
285 17 410
286 17 615
287 17 599
288 17 234
289 17 886
290 16 212
291 16 485
292 16 35
293 16 497
294 16 828
295 16 414
296 16 501
297 16 842
298 16 332
299 16 151
300 16 852
301 16 208
302 16 752
303 16 393
304 16 965
305 16 410
306 16 96
307 16 740
308 15 684
309 15 640
310 15 889
311 15 630
312 15 624
313 15 573
314 15 174
315 15 79
316 15 510
317 15 514
318 15 435
319 15 473
320 15 618
321 15 851
322 14 597
323 14 328
324 14 781
325 14 831
326 14 931
327 14 200
328 14 910
329 14 793
330 14 772
331 14 791
332 14 762
333 14 969
334 14 113
335 14 535
336 14 406
337 14 116
338 14 361
339 13 188
340 13 176
341 13 971
342 13 677
343 13 804
344 13 282
345 13 989
346 13 227
347 13 10
348 13 693
349 13 523
350 13 993
351 13 603
352 13 838
353 12 227
354 12 48
355 12 32
356 12 252
357 12 457
358 12 820
359 12 661
360 12 316
361 12 357
362 12 673
363 12 177
364 12 230
365 12 111
366 12 633
367 11 407
368 11 420
369 11 188
370 11 702
371 11 652
372 11 105
373 11 60
374 11 881
375 11 971
376 11 650
377 11 916
378 11 280
379 11 51
380 11 149
381 11 976
382 11 497
383 11 855
384 11 434
385 11 755
386 11 651
387 11 854
388 10 749
389 10 555
390 10 374
391 10 430
392 10 374
393 10 135
394 10 732
395 10 224
396 10 407
397 10 185
398 10 61
399 10 15
400 10 45
